NPROCS=0
This instance is clustered!
Gurobi Optimizer version 9.0.0 build v9.0.0rc2 (linux64)
Optimize a model with 20 rows, 101 columns and 200 nonzeros
Model fingerprint: 0x74b950db
Variable types: 1 continuous, 100 integer (100 binary)
Coefficient statistics:
  Matrix range     [1e+00, 1e+00]
  Objective range  [1e+00, 5e+01]
  Bounds range     [1e+00, 1e+00]
  RHS range        [1e+00, 1e+00]
Presolve removed 2 rows and 27 columns
Presolve time: 0.00s
Presolved: 18 rows, 74 columns, 146 nonzeros
Variable types: 1 continuous, 73 integer (73 binary)

Root relaxation: objective 8.838075e+01, 12 iterations, 0.00 seconds

    Nodes    |    Current Node    |     Objective Bounds      |     Work
 Expl Unexpl |  Obj  Depth IntInf | Incumbent    BestBd   Gap | It/Node Time

     0     0   96.61748    0    8          -   96.61748      -     -    0s
 done with super cut 0
 done with super cut 1
H    0     0                     159.3228278   96.61748  39.4%     -    0s
 done with super cut 2
 done with super cut 3
H    0     0                     137.7943154   96.61748  29.9%     -    0s
     0     0  101.96623    0    4  137.79432  101.96623  26.0%     -    0s
 done with super cut 4
     0     0  107.45047    0   18  137.79432  107.45047  22.0%     -    0s
 done with super cut 5
 done with super cut 6
H    0     0                     127.2682598  110.30205  13.3%     -    0s
     0     2  110.30205    0   22  127.26826  110.30205  13.3%     -    0s
 done with super cut 7
 done with super cut 8
 done with super cut 9
 done with super cut 10

Cutting planes:
  Gomory: 1
  Lazy constraints: 26

Explored 71 nodes (321 simplex iterations) in 0.26 seconds
Thread count was 12 (of 12 available processors)

Solution count 3: 127.268 137.794 159.323 

Optimal solution found (tolerance 1.00e-04)
Best objective 1.272682598054e+02, best bound 1.272682598054e+02, gap 0.0000%

User-callback calls 242, time in user-callback 0.23 sec
/projects/academic/josewalt/caigao/RRARP_BD/BendersDecomp/ret/model_outs/n_8_m_5_algo_4.out
 =====>>>>> Solution is written to file in <../ret/model_outs> !!!
===>> All Done!
